NAME 
ROWS
 N  OBJ
 L  R0      
 E  R1      
 E  R2      
 E  R3      
 E  R4      
 E  R5      
COLUMNS
    MARKER    'MARKER'                 'INTORG'
    I0(4)     OBJ       160
    I0(4)     R0        -13
    I0(4)     R1        1
    I0(4)     R2        4
    I0(4)     R5        1
    I1(3)     OBJ       -46
    I1(3)     R0        148
    I1(3)     R1        16
    I1(3)     R5        1
    MARKER    'MARKER'                 'INTEND'
    C2(3)     OBJ       5
    C2(3)     R0        -2
    C2(3)     R1        16
    C2(3)     R2        18
    C3(2)     OBJ       -2
    C3(2)     R0        6
    C3(2)     R3        14
    C4(3)     OBJ       -9
    C4(3)     R0        2
    C4(3)     R3        17
    C4(3)     R4        19
    C5(1)     R1        1
    C6(1)     R2        1
    C7(1)     R3        1
    C8(1)     R4        1
    C9(1)     R5        1
RHS
    RHS1      R0        2.3804511278195488e+01
    RHS1      R1        74
    RHS1      R2        76
    RHS1      R3        88
    RHS1      R4        50
BOUNDS
 UP BND1      I0(4)     1
 UP BND1      I1(3)     1
ENDATA
